\ Model UAVstrike
\ LP format - for model browsing. Use MPS format to capture full model detail.
Minimize
  0.1 C90 + 0.1 C91 + 0.1 C92 + 0.1 C93 + 0.1 C94 + 0.1 C95 + C96
Subject To
 R0: C20 + C23 + C26 + C29 + C32 + C40 + C46 + C52 + C58 + C64 = 1
 R1: C5 + C8 + C11 + C14 + C17 + C43 + C49 + C55 + C61 + C67 = 1
 R2: C22 + C25 + C28 + C31 + C34 + C42 + C48 + C54 + C60 + C66 = 1
 R3: C7 + C10 + C13 + C16 + C19 + C45 + C51 + C57 + C63 + C69 = 1
 R4: C0 + C1 + C2 + C3 + C4 + C21 + C24 + C27 + C30 + C33 + C41 + C47 + C53
   + C59 + C65 = 1
 R5: C6 + C9 + C12 + C15 + C18 + C35 + C36 + C37 + C38 + C39 + C44 + C50
   + C56 + C62 + C68 = 1
 R6: C20 + C23 + C26 + C29 + C32 + C40 + C46 + C52 + C58 + C64 <= 1
 R7: C5 + C8 + C11 + C14 + C17 + C43 + C49 + C55 + C61 + C67 <= 1
 R8: C22 + C25 + C28 + C31 + C34 + C42 + C48 + C54 + C60 + C66 <= 1
 R9: C7 + C10 + C13 + C16 + C19 + C45 + C51 + C57 + C63 + C69 <= 1
 R10: C0 + C1 + C2 + C3 + C4 + C21 + C24 + C27 + C30 + C33 + C41 + C47
   + C53 + C59 + C65 <= 1
 R11: C6 + C9 + C12 + C15 + C18 + C35 + C36 + C37 + C38 + C39 + C44 + C50
   + C56 + C62 + C68 <= 1
 R12: C20 + C21 + C22 + C40 + C41 + C42 <= 1
 R13: C5 + C6 + C7 + C43 + C44 + C45 <= 1
 R14: C23 + C24 + C25 + C46 + C47 + C48 <= 1
 R15: C8 + C9 + C10 + C49 + C50 + C51 <= 1
 R16: C26 + C27 + C28 + C52 + C53 + C54 <= 1
 R17: C11 + C12 + C13 + C55 + C56 + C57 <= 1
 R18: C29 + C30 + C31 + C58 + C59 + C60 <= 1
 R19: C14 + C15 + C16 + C61 + C62 + C63 <= 1
 R20: C32 + C33 + C34 + C64 + C65 + C66 <= 1
 R21: C17 + C18 + C19 + C67 + C68 + C69 <= 1
 R22: C70 + C75 + C80 <= 1
 R23: C71 + C76 + C81 <= 1
 R24: C72 + C77 + C82 <= 1
 R25: C73 + C78 + C83 <= 1
 R26: C74 + C79 + C84 <= 1
 R27: C20 + C21 + C22 + C70 <= 1
 R28: C5 + C6 + C7 + C75 <= 1
 R29: C23 + C24 + C25 + C71 <= 1
 R30: C8 + C9 + C10 + C76 <= 1
 R31: C26 + C27 + C28 + C72 <= 1
 R32: C11 + C12 + C13 + C77 <= 1
 R33: C29 + C30 + C31 + C73 <= 1
 R34: C14 + C15 + C16 + C78 <= 1
 R35: C32 + C33 + C34 + C74 <= 1
 R36: C17 + C18 + C19 + C79 <= 1
 R37: C0 + C6 + C21 + C35 + C41 + C44 <= 1
 R38: C1 + C9 + C24 + C36 + C47 + C50 <= 1
 R39: C2 + C12 + C27 + C37 + C53 + C56 <= 1
 R40: C3 + C15 + C30 + C38 + C59 + C62 <= 1
 R41: C4 + C18 + C33 + C39 + C65 + C68 <= 1
 R42: C21 + C22 + C41 + C42 <= 1
 R43: C6 + C7 + C44 + C45 <= 1
 R44: C24 + C25 + C47 + C48 <= 1
 R45: C9 + C10 + C50 + C51 <= 1
 R46: C27 + C28 + C53 + C54 <= 1
 R47: C12 + C13 + C56 + C57 <= 1
 R48: C30 + C31 + C59 + C60 <= 1
 R49: C15 + C16 + C62 + C63 <= 1
 R50: C33 + C34 + C65 + C66 <= 1
 R51: C18 + C19 + C68 + C69 <= 1
 R52: - C5 - C6 - C7 + C22 + C42 - C70 <= 0
 R53: - C0 - C5 - C6 - C7 + C20 + C40 - C70 <= 0
 R54: - C8 - C9 - C10 + C25 + C48 - C71 <= 0
 R55: - C1 - C8 - C9 - C10 + C23 + C46 - C71 <= 0
 R56: - C11 - C12 - C13 + C28 + C54 - C72 <= 0
 R57: - C2 - C11 - C12 - C13 + C26 + C52 - C72 <= 0
 R58: - C14 - C15 - C16 + C31 + C60 - C73 <= 0
 R59: - C3 - C14 - C15 - C16 + C29 + C58 - C73 <= 0
 R60: - C17 - C18 - C19 + C34 + C66 - C74 <= 0
 R61: - C4 - C17 - C18 - C19 + C32 + C64 - C74 <= 0
 R62: C7 - C20 - C21 - C22 + C45 - C75 <= 0
 R63: C5 - C20 - C21 - C22 - C35 + C43 - C75 <= 0
 R64: C10 - C23 - C24 - C25 + C51 - C76 <= 0
 R65: C8 - C23 - C24 - C25 - C36 + C49 - C76 <= 0
 R66: C13 - C26 - C27 - C28 + C57 - C77 <= 0
 R67: C11 - C26 - C27 - C28 - C37 + C55 - C77 <= 0
 R68: C16 - C29 - C30 - C31 + C63 - C78 <= 0
 R69: C14 - C29 - C30 - C31 - C38 + C61 - C78 <= 0
 R70: C19 - C32 - C33 - C34 + C69 - C79 <= 0
 R71: C17 - C32 - C33 - C34 - C39 + C67 - C79 <= 0
 R72: C0 + C5 + C6 + C7 + C21 + C41 + C70 <= 1
 R73: C5 + C6 + C7 - C20 - C21 - C22 - C40 - C41 - C42 + C70 <= 0
 R74: C1 + C8 + C9 + C10 + C24 + C47 + C71 <= 1
 R75: C8 + C9 + C10 - C23 - C24 - C25 - C46 - C47 - C48 + C71 <= 0
 R76: C2 + C11 + C12 + C13 + C27 + C53 + C72 <= 1
 R77: C11 + C12 + C13 - C26 - C27 - C28 - C52 - C53 - C54 + C72 <= 0
 R78: C3 + C14 + C15 + C16 + C30 + C59 + C73 <= 1
 R79: C14 + C15 + C16 - C29 - C30 - C31 - C58 - C59 - C60 + C73 <= 0
 R80: C4 + C17 + C18 + C19 + C33 + C65 + C74 <= 1
 R81: C17 + C18 + C19 - C32 - C33 - C34 - C64 - C65 - C66 + C74 <= 0
 R82: C6 + C20 + C21 + C22 + C35 + C44 + C75 <= 1
 R83: - C5 - C6 - C7 + C20 + C21 + C22 - C43 - C44 - C45 + C75 <= 0
 R84: C9 + C23 + C24 + C25 + C36 + C50 + C76 <= 1
 R85: - C8 - C9 - C10 + C23 + C24 + C25 - C49 - C50 - C51 + C76 <= 0
 R86: C12 + C26 + C27 + C28 + C37 + C56 + C77 <= 1
 R87: - C11 - C12 - C13 + C26 + C27 + C28 - C55 - C56 - C57 + C77 <= 0
 R88: C15 + C29 + C30 + C31 + C38 + C62 + C78 <= 1
 R89: - C14 - C15 - C16 + C29 + C30 + C31 - C61 - C62 - C63 + C78 <= 0
 R90: C18 + C32 + C33 + C34 + C39 + C68 + C79 <= 1
 R91: - C17 - C18 - C19 + C32 + C33 + C34 - C67 - C68 - C69 + C79 <= 0
 R92: C40 + C41 + C42 + C43 + C44 + C45 + C80 = 1
 R93: C46 + C47 + C48 + C49 + C50 + C51 + C81 = 1
 R94: C52 + C53 + C54 + C55 + C56 + C57 + C82 = 1
 R95: C58 + C59 + C60 + C61 + C62 + C63 + C83 = 1
 R96: C64 + C65 + C66 + C67 + C68 + C69 + C84 = 1
 R97: C0 - C20 - C40 <= 0
 R98: C1 - C23 - C46 <= 0
 R99: C2 - C26 - C52 <= 0
 R100: C3 - C29 - C58 <= 0
 R101: C4 - C32 - C64 <= 0
 R102: - C5 + C35 - C43 <= 0
 R103: - C8 + C36 - C49 <= 0
 R104: - C11 + C37 - C55 <= 0
 R105: - C14 + C38 - C61 <= 0
 R106: - C17 + C39 - C67 <= 0
 R107: 500 C5 + 500 C20 + 500 C40 - C90 + C93 <= 1003
 R108: - 500 C5 - 500 C20 - 500 C40 - C90 + C93 >= -997
 R109: 500 C5 + 500 C22 + 500 C42 - C92 + C93 <= 1003
 R110: - 500 C5 - 500 C22 - 500 C42 - C92 + C93 >= -997
 R111: 500 C7 + 500 C20 + 500 C40 - C90 + C95 <= 1001
 R112: - 500 C7 - 500 C20 - 500 C40 - C90 + C95 >= -999
 R113: 500 C7 + 500 C22 + 500 C42 - C92 + C95 <= 1001
 R114: - 500 C7 - 500 C22 - 500 C42 - C92 + C95 >= -999
 R115: 500 C8 + 500 C23 + 500 C46 - C90 + C93 <= 1020
 R116: - 500 C8 - 500 C23 - 500 C46 - C90 + C93 >= -980
 R117: 500 C8 + 500 C25 + 500 C48 - C92 + C93 <= 1020
 R118: - 500 C8 - 500 C25 - 500 C48 - C92 + C93 >= -980
 R119: 500 C10 + 500 C23 + 500 C46 - C90 + C95 <= 1013
 R120: - 500 C10 - 500 C23 - 500 C46 - C90 + C95 >= -987
 R121: 500 C10 + 500 C25 + 500 C48 - C92 + C95 <= 1013
 R122: - 500 C10 - 500 C25 - 500 C48 - C92 + C95 >= -987
 R123: 500 C11 + 500 C26 + 500 C52 - C90 + C93 <= 1023
 R124: - 500 C11 - 500 C26 - 500 C52 - C90 + C93 >= -977
 R125: 500 C11 + 500 C28 + 500 C54 - C92 + C93 <= 1023
 R126: - 500 C11 - 500 C28 - 500 C54 - C92 + C93 >= -977
 R127: 500 C13 + 500 C26 + 500 C52 - C90 + C95 <= 1026
 R128: - 500 C13 - 500 C26 - 500 C52 - C90 + C95 >= -974
 R129: 500 C13 + 500 C28 + 500 C54 - C92 + C95 <= 1026
 R130: - 500 C13 - 500 C28 - 500 C54 - C92 + C95 >= -974
 R131: 500 C14 + 500 C29 + 500 C58 - C90 + C93 <= 1030
 R132: - 500 C14 - 500 C29 - 500 C58 - C90 + C93 >= -970
 R133: 500 C14 + 500 C31 + 500 C60 - C92 + C93 <= 1030
 R134: - 500 C14 - 500 C31 - 500 C60 - C92 + C93 >= -970
 R135: 500 C16 + 500 C29 + 500 C58 - C90 + C95 <= 1018
 R136: - 500 C16 - 500 C29 - 500 C58 - C90 + C95 >= -982
 R137: 500 C16 + 500 C31 + 500 C60 - C92 + C95 <= 1018
 R138: - 500 C16 - 500 C31 - 500 C60 - C92 + C95 >= -982
 R139: 500 C17 + 500 C32 + 500 C64 - C90 + C93 <= 1021
 R140: - 500 C17 - 500 C32 - 500 C64 - C90 + C93 >= -979
 R141: 500 C17 + 500 C34 + 500 C66 - C92 + C93 <= 1021
 R142: - 500 C17 - 500 C34 - 500 C66 - C92 + C93 >= -979
 R143: 500 C19 + 500 C32 + 500 C64 - C90 + C95 <= 1015
 R144: - 500 C19 - 500 C32 - 500 C64 - C90 + C95 >= -985
 R145: 500 C19 + 500 C34 + 500 C66 - C92 + C95 <= 1015
 R146: - 500 C19 - 500 C34 - 500 C66 - C92 + C95 >= -985
 R147: 500 C5 + 500 C20 + 500 C43 + C90 - C93 <= 1019
 R148: - 500 C5 - 500 C20 - 500 C43 + C90 - C93 >= -981
 R149: 500 C7 + 500 C20 + 500 C45 + C90 - C95 <= 1019
 R150: - 500 C7 - 500 C20 - 500 C45 + C90 - C95 >= -981
 R151: 500 C5 + 500 C22 + 500 C43 + C92 - C93 <= 1018
 R152: - 500 C5 - 500 C22 - 500 C43 + C92 - C93 >= -982
 R153: 500 C7 + 500 C22 + 500 C45 + C92 - C95 <= 1018
 R154: - 500 C7 - 500 C22 - 500 C45 + C92 - C95 >= -982
 R155: 500 C8 + 500 C23 + 500 C49 + C90 - C93 <= 1014
 R156: - 500 C8 - 500 C23 - 500 C49 + C90 - C93 >= -986
 R157: 500 C10 + 500 C23 + 500 C51 + C90 - C95 <= 1014
 R158: - 500 C10 - 500 C23 - 500 C51 + C90 - C95 >= -986
 R159: 500 C8 + 500 C25 + 500 C49 + C92 - C93 <= 1023
 R160: - 500 C8 - 500 C25 - 500 C49 + C92 - C93 >= -977
 R161: 500 C10 + 500 C25 + 500 C51 + C92 - C95 <= 1023
 R162: - 500 C10 - 500 C25 - 500 C51 + C92 - C95 >= -977
 R163: 500 C11 + 500 C26 + 500 C55 + C90 - C93 <= 1025
 R164: - 500 C11 - 500 C26 - 500 C55 + C90 - C93 >= -975
 R165: 500 C13 + 500 C26 + 500 C57 + C90 - C95 <= 1025
 R166: - 500 C13 - 500 C26 - 500 C57 + C90 - C95 >= -975
 R167: 500 C11 + 500 C28 + 500 C55 + C92 - C93 <= 1017
 R168: - 500 C11 - 500 C28 - 500 C55 + C92 - C93 >= -983
 R169: 500 C13 + 500 C28 + 500 C57 + C92 - C95 <= 1017
 R170: - 500 C13 - 500 C28 - 500 C57 + C92 - C95 >= -983
 R171: 500 C14 + 500 C29 + 500 C61 + C90 - C93 <= 1021
 R172: - 500 C14 - 500 C29 - 500 C61 + C90 - C93 >= -979
 R173: 500 C16 + 500 C29 + 500 C63 + C90 - C95 <= 1021
 R174: - 500 C16 - 500 C29 - 500 C63 + C90 - C95 >= -979
 R175: 500 C14 + 500 C31 + 500 C61 + C92 - C93 <= 1003
 R176: - 500 C14 - 500 C31 - 500 C61 + C92 - C93 >= -997
 R177: 500 C16 + 500 C31 + 500 C63 + C92 - C95 <= 1003
 R178: - 500 C16 - 500 C31 - 500 C63 + C92 - C95 >= -997
 R179: 500 C17 + 500 C32 + 500 C67 + C90 - C93 <= 1024
 R180: - 500 C17 - 500 C32 - 500 C67 + C90 - C93 >= -976
 R181: 500 C19 + 500 C32 + 500 C69 + C90 - C95 <= 1024
 R182: - 500 C19 - 500 C32 - 500 C69 + C90 - C95 >= -976
 R183: 500 C17 + 500 C34 + 500 C67 + C92 - C93 <= 1008
 R184: - 500 C17 - 500 C34 - 500 C67 + C92 - C93 >= -992
 R185: 500 C19 + 500 C34 + 500 C69 + C92 - C95 <= 1008
 R186: - 500 C19 - 500 C34 - 500 C69 + C92 - C95 >= -992
 R187: 500 C6 + 500 C20 + 500 C40 - C90 + C94 <= 1020
 R188: - 500 C6 - 500 C20 - 500 C40 - C90 + C94 >= -980
 R189: 500 C6 + 500 C22 + 500 C42 - C92 + C94 <= 1020
 R190: - 500 C6 - 500 C22 - 500 C42 - C92 + C94 >= -980
 R191: 500 C9 + 500 C23 + 500 C46 - C90 + C94 <= 1005
 R192: - 500 C9 - 500 C23 - 500 C46 - C90 + C94 >= -995
 R193: 500 C9 + 500 C25 + 500 C48 - C92 + C94 <= 1005
 R194: - 500 C9 - 500 C25 - 500 C48 - C92 + C94 >= -995
 R195: 500 C12 + 500 C26 + 500 C52 - C90 + C94 <= 1006
 R196: - 500 C12 - 500 C26 - 500 C52 - C90 + C94 >= -994
 R197: 500 C12 + 500 C28 + 500 C54 - C92 + C94 <= 1006
 R198: - 500 C12 - 500 C28 - 500 C54 - C92 + C94 >= -994
 R199: 500 C15 + 500 C29 + 500 C58 - C90 + C94 <= 1001
 R200: - 500 C15 - 500 C29 - 500 C58 - C90 + C94 >= -999
 R201: 500 C15 + 500 C31 + 500 C60 - C92 + C94 <= 1001
 R202: - 500 C15 - 500 C31 - 500 C60 - C92 + C94 >= -999
 R203: 500 C18 + 500 C32 + 500 C64 - C90 + C94 <= 1015
 R204: - 500 C18 - 500 C32 - 500 C64 - C90 + C94 >= -985
 R205: 500 C18 + 500 C34 + 500 C66 - C92 + C94 <= 1015
 R206: - 500 C18 - 500 C34 - 500 C66 - C92 + C94 >= -985
 R207: 500 C5 + 500 C21 + 500 C43 + C91 - C93 <= 1001
 R208: - 500 C5 - 500 C21 - 500 C43 + C91 - C93 >= -999
 R209: 500 C7 + 500 C21 + 500 C45 + C91 - C95 <= 1001
 R210: - 500 C7 - 500 C21 - 500 C45 + C91 - C95 >= -999
 R211: 500 C8 + 500 C24 + 500 C49 + C91 - C93 <= 1008
 R212: - 500 C8 - 500 C24 - 500 C49 + C91 - C93 >= -992
 R213: 500 C10 + 500 C24 + 500 C51 + C91 - C95 <= 1008
 R214: - 500 C10 - 500 C24 - 500 C51 + C91 - C95 >= -992
 R215: 500 C11 + 500 C27 + 500 C55 + C91 - C93 <= 1014
 R216: - 500 C11 - 500 C27 - 500 C55 + C91 - C93 >= -986
 R217: 500 C13 + 500 C27 + 500 C57 + C91 - C95 <= 1014
 R218: - 500 C13 - 500 C27 - 500 C57 + C91 - C95 >= -986
 R219: 500 C14 + 500 C30 + 500 C61 + C91 - C93 <= 1017
 R220: - 500 C14 - 500 C30 - 500 C61 + C91 - C93 >= -983
 R221: 500 C16 + 500 C30 + 500 C63 + C91 - C95 <= 1017
 R222: - 500 C16 - 500 C30 - 500 C63 + C91 - C95 >= -983
 R223: 500 C17 + 500 C33 + 500 C67 + C91 - C93 <= 1028
 R224: - 500 C17 - 500 C33 - 500 C67 + C91 - C93 >= -972
 R225: 500 C19 + 500 C33 + 500 C69 + C91 - C95 <= 1028
 R226: - 500 C19 - 500 C33 - 500 C69 + C91 - C95 >= -972
 R227: 100 C40 - C85 + C90 <= 118
 R228: - 100 C40 - C85 + C90 >= -82
 R229: 100 C41 - C85 + C91 <= 125
 R230: - 100 C41 - C85 + C91 >= -75
 R231: 100 C42 - C85 + C92 <= 106
 R232: - 100 C42 - C85 + C92 >= -94
 R233: 100 C46 - C86 + C90 <= 118
 R234: - 100 C46 - C86 + C90 >= -82
 R235: 100 C47 - C86 + C91 <= 125
 R236: - 100 C47 - C86 + C91 >= -75
 R237: 100 C48 - C86 + C92 <= 130
 R238: - 100 C48 - C86 + C92 >= -70
 R239: 100 C52 - C87 + C90 <= 119
 R240: - 100 C52 - C87 + C90 >= -81
 R241: 100 C53 - C87 + C91 <= 123
 R242: - 100 C53 - C87 + C91 >= -77
 R243: 100 C54 - C87 + C92 <= 102
 R244: - 100 C54 - C87 + C92 >= -98
 R245: 100 C58 - C88 + C90 <= 120
 R246: - 100 C58 - C88 + C90 >= -80
 R247: 100 C59 - C88 + C91 <= 115
 R248: - 100 C59 - C88 + C91 >= -85
 R249: 100 C60 - C88 + C92 <= 126
 R250: - 100 C60 - C88 + C92 >= -74
 R251: 100 C64 - C89 + C90 <= 110
 R252: - 100 C64 - C89 + C90 >= -90
 R253: 100 C65 - C89 + C91 <= 117
 R254: - 100 C65 - C89 + C91 >= -83
 R255: 100 C66 - C89 + C92 <= 103
 R256: - 100 C66 - C89 + C92 >= -97
 R257: 100 C43 - C85 + C93 <= 101
 R258: - 100 C43 - C85 + C93 >= -99
 R259: 100 C44 - C85 + C94 <= 119
 R260: - 100 C44 - C85 + C94 >= -81
 R261: 100 C45 - C85 + C95 <= 129
 R262: - 100 C45 - C85 + C95 >= -71
 R263: 100 C49 - C86 + C93 <= 106
 R264: - 100 C49 - C86 + C93 >= -94
 R265: 100 C50 - C86 + C94 <= 109
 R266: - 100 C50 - C86 + C94 >= -91
 R267: 100 C51 - C86 + C95 <= 104
 R268: - 100 C51 - C86 + C95 >= -96
 R269: 100 C55 - C87 + C93 <= 117
 R270: - 100 C55 - C87 + C93 >= -83
 R271: 100 C56 - C87 + C94 <= 125
 R272: - 100 C56 - C87 + C94 >= -75
 R273: 100 C57 - C87 + C95 <= 130
 R274: - 100 C57 - C87 + C95 >= -70
 R275: 100 C61 - C88 + C93 <= 104
 R276: - 100 C61 - C88 + C93 >= -96
 R277: 100 C62 - C88 + C94 <= 118
 R278: - 100 C62 - C88 + C94 >= -82
 R279: 100 C63 - C88 + C95 <= 109
 R280: - 100 C63 - C88 + C95 >= -91
 R281: 100 C67 - C89 + C93 <= 104
 R282: - 100 C67 - C89 + C93 >= -96
 R283: 100 C68 - C89 + C94 <= 109
 R284: - 100 C68 - C89 + C94 >= -91
 R285: 100 C69 - C89 + C95 <= 102
 R286: - 100 C69 - C89 + C95 >= -98
 R287: C90 - C91 <= -1
 R288: C91 - C92 <= -1
 R289: C93 - C94 <= -1
 R290: C94 - C95 <= -1
 R291: 3 C5 + 20 C6 + C7 + 19 C20 + C21 + 18 C22 + 18 C40 + 25 C41 + 6 C42
   + C43 + 19 C44 + 29 C45 <= 100
 R292: 20 C8 + 5 C9 + 13 C10 + 14 C23 + 8 C24 + 23 C25 + 18 C46 + 25 C47
   + 30 C48 + 6 C49 + 9 C50 + 4 C51 <= 100
 R293: 23 C11 + 6 C12 + 26 C13 + 25 C26 + 14 C27 + 17 C28 + 19 C52 + 23 C53
   + 2 C54 + 17 C55 + 25 C56 + 30 C57 <= 100
 R294: 30 C14 + C15 + 18 C16 + 21 C29 + 17 C30 + 3 C31 + 20 C58 + 15 C59
   + 26 C60 + 4 C61 + 18 C62 + 9 C63 <= 100
 R295: 21 C17 + 15 C18 + 15 C19 + 24 C32 + 28 C33 + 8 C34 + 10 C64 + 17 C65
   + 3 C66 + 4 C67 + 9 C68 + 2 C69 <= 100
Bounds
Binaries
 C0 C1 C2 C3 C4 C5 C6 C7 C8 C9 C10 C11 C12 C13 C14 C15 C16 C17 C18 C19 C20
 C21 C22 C23 C24 C25 C26 C27 C28 C29 C30 C31 C32 C33 C34 C35 C36 C37 C38
 C39 C40 C41 C42 C43 C44 C45 C46 C47 C48 C49 C50 C51 C52 C53 C54 C55 C56
 C57 C58 C59 C60 C61 C62 C63 C64 C65 C66 C67 C68 C69 C70 C71 C72 C73 C74
 C75 C76 C77 C78 C79 C80 C81 C82 C83 C84
End
